26 21 73 72 39 67 23 56 75 74 4 55 25 24 54 12 
50 33 81 65 20 30 1 76 3 79 78 9 51 70 
52 18 45 46 36 47 48 62 11 64 49 19 10 63 90 32 66 71 35 34 29 68 80 77 28 
2 57 42 43 15 41 22 40 53 
95 92 37 16 86 38 14 44 91 85 99 59 97 87 94 6 13 58 
27 69 31 88 7 82 8 83 60 5 84 17 61 100 98 93 96 89 
